50
     8    22    34    66    98    82    11    70    60    15    93    93    41    22    98    70    52    99    58    78    70    30    19    35    39    89    46    99    68    42    18    67    30    47    29    80    65    49    89    17    80    86    24    98    45    87    76    84    97    70
    10     4    10     2     8     2     3     9     9     3    10     4     3     6     8     8     4     8    10    10     9     2     5     4     5     9     3     6     7     6     2     3    10     9     3     5    10     9     2     4     1     7     1     5     9     8     5     4     6     7
  1228  2035  2989  3205  2075  2809  2226  2125  2943  1816  1640  1448  2061  2521  1449  3100  3128  1539  3406  2120  1843  2400  2621  2193  1877  2224  1774  1733  1404  3133  2945  2356  2008  1281  2969  2024  2276  2978  1761  3521  1997  1939  2389  2889  2822  2476  2900  2605  3041  1462
